
Gurobi 10.0.2 (linux64) logging started Fri 19 Jul 2024 01:50:59 AM -05

Set parameter LogFile to value "gurobi.log"
Gurobi Optimizer version 10.0.2 build v10.0.2rc0 (linux64)

CPU model: Intel(R) Core(TM) i5-1035G1 CPU @ 1.00GHz, instruction set [SSE2|AVX|AVX2|AVX512]
Thread count: 4 physical cores, 8 logical processors, using up to 8 threads

Academic license 2446675 - for non-commercial use only - registered to mi___@epn.edu.ec
Optimize a model with 5627 rows, 4655 columns and 36059 nonzeros
Model fingerprint: 0xbf5cf63d
Variable types: 0 continuous, 4655 integer (0 binary)
Coefficient statistics:
  Matrix range     [5e-01, 8e+01]
  Objective range  [1e+00, 1e+00]
  Bounds range     [1e+01, 2e+04]
  RHS range        [1e+00, 2e+04]
Presolve removed 3615 rows and 1600 columns
Presolve time: 0.04s
Presolved: 2012 rows, 3055 columns, 19298 nonzeros
Variable types: 0 continuous, 3055 integer (1 binary)

Root relaxation: objective 5.810000e+05, 788 iterations, 0.02 seconds (0.02 work units)

    Nodes    |    Current Node    |     Objective Bounds      |     Work
 Expl Unexpl |  Obj  Depth IntInf | Incumbent    BestBd   Gap | It/Node Time

     0     0 581000.000    0   37          - 581000.000      -     -    0s
H    0     0                    580900.00000 581000.000  0.02%     -    0s
H    0     0                    580950.00000 581000.000  0.01%     -    0s

Cutting planes:
  Gomory: 1
  MIR: 30
  StrongCG: 7

Explored 1 nodes (945 simplex iterations) in 0.13 seconds (0.12 work units)
Thread count was 8 (of 8 available processors)

Solution count 2: 580950 580900 

Optimal solution found (tolerance 1.00e-04)
Best objective 5.809500000000e+05, best bound 5.810000000000e+05, gap 0.0086%
